(set-logic ALL)
(declare-fun seed0_T_1 () Int)
(declare-fun seed0_T_2 () Bool)
(declare-fun seed0_T_3 () Bool)
(declare-fun seed0_var_0xINPUT_229514 () String)
(assert (and (or (>= seed0_T_1 (str.len seed0_var_0xINPUT_229514)) (not (= (+ seed0_T_1 30) (mod seed0_T_1 seed0_T_1)))) (or (= seed0_T_2 (= seed0_T_1 0)) (=> (= (mod seed0_T_1 seed0_T_1) (* seed0_T_1 seed0_T_1)) (> (- seed0_T_1 387) (* seed0_T_1 seed0_T_1)))) (or (= seed0_T_3 (not seed0_T_2)) (not (= (- seed0_T_1 938) (+ seed0_T_1 532)))) (or seed0_T_3 (not (>= (+ seed0_T_1 (- 354)) (div seed0_T_1 seed0_T_1))))))
(check-sat)
(exit)